paper,references,weight
Burazin 2016,Baker 2004,1
Burazin 2016,Baker 2004,1
Burazin 2016,Baker 2004,1
Burazin 2016,Baker 2004,1
Burazin 2016,Baker 2006,1
Burazin 2016,Baker 2008,1
Burazin 2016,Baker 2010,1
Burazin 2016,Bloom 1996,1
Burazin 2016,Bloom 1996,1
Burazin 2016,Bloom 1996,1
Burazin 2016,Bloom 1996,1
Burazin 2016,Bloom 1996,1
Burazin 2016,Burazin 2014,1
Burazin 2016,MacCormick 2007,1
Burazin 2016,Ehrenberg 2009,1
Burazin 2016,Ehrenberg 2009,1
Burazin 2016,Elder 2007,1
Burazin 2016,Finnis 1984,1
Burazin 2016,Gardner 2004,1
Burazin 2016,Gardner 2004,1
Burazin 2016,Grandy 2007,1
Burazin 2016,Hart 1994,1
Burazin 2016,Hart 1994,1
Burazin 2016,Hilpinen 1992,1
Burazin 2016,Hilpinen 1992,1
Burazin 2016,Hilpinen 1992,1
Burazin 2016,Hilpinen 1992,1
Burazin 2016,Hilpinen 1993,1
Burazin 2016,Hilpinen 1993,1
Burazin 2016,Hilpinen 1993,1
Burazin 2016,Hilpinen 1993,1
Burazin 2016,Hilpinen 1993,1
Burazin 2016,Hilpinen 2011,1
Burazin 2016,Hilpinen 2011,1
Burazin 2016,Hilpinen 2011,1
Burazin 2016,Hilpinen 2011,1
Burazin 2016,Hilpinen 2011,1
Burazin 2016,Hilpinen 2011,1
Burazin 2016,Hilpinen 2011,1
Burazin 2016,Kornblith 2007,1
Burazin 2016,Leiter 2011,1
Burazin 2016,Leiter 2011,1
Burazin 2016,Leiter 2011,1
Burazin 2016,Leiter 2013,1
Burazin 2016,Levinson 2007,1
Burazin 2016,Levinson 2007,1
Burazin 2016,Levinson 2007,1
Burazin 2016,Roversi 2012,1
Burazin 2016,Roversi 2012,1
Burazin 2016,Roversi Borghi Tummolini 2013,1
Burazin 2016,Schauer 2012,1
Burazin 2016,Schauer 2012,1
Burazin 2016,Searle 1995,1
Burazin 2016,Searle 1995,1
Burazin 2016,Searle 1995,1
Burazin 2016,Searle 2010,1
Burazin 2016,Thomasson 2003a,1
Burazin 2016,Thomasson 2003a,1
Burazin 2016,Thomasson 2003a,1
Burazin 2016,Thomasson 2003a,1
Burazin 2016,Thomasson 2003a,1
Burazin 2016,Thomasson 2003a,1
Burazin 2016,Thomasson 2003a,1
Burazin 2016,Thomasson 2003b,1
Burazin 2016,Thomasson 2007,1
Burazin 2016,Thomasson 2007,1
Burazin 2016,Thomasson 2007,1
Burazin 2016,Thomasson 2007,1
Burazin 2016,Thomasson 2007,1
Burazin 2016,Thomasson 2007,1
Burazin 2016,Thomasson 2007,1
Burazin 2016,Thomasson 2007,1
Burazin 2016,Thomasson 2007,1
Burazin 2016,Thomasson 2009a,1
Burazin 2016,Thomasson 2009b,1
Burazin 2016,Thomasson 2009b,1
Burazin 2016,Thomasson 2014,1
Burazin 2016,Weinberger 1991,1
Burazin 2018,Burazin 2015,1
Burazin 2018,Burazin 2016,1
Burazin 2018,Crowe 2014,1
Burazin 2018,Ehrenberg 2016,1
Burazin 2018,Elder 2014,1
Burazin 2018,Epstein 2015,1
Burazin 2018,Finnis 1996,1
Burazin 2018,Gilbert 2001,1
Burazin 2018,Guala 2016,1
Burazin 2018,Hart 1994,1
Burazin 2018,Hart 1994,1
Burazin 2018,Hart 1994,1
Burazin 2018,Hilpinen 1993,1
Burazin 2018,Hilpinen 2011,1
Burazin 2018,Kelsen 2008,1
Burazin 2018,Lagerspetz 1995,1
Burazin 2018,Lagerspetz 1995,1
Burazin 2018,Lowe 2014,1
Burazin 2018,MacCormick 2007,1
Burazin 2018,Meijers 2007,1
Burazin 2018,Miller 2007 ,1
Burazin 2018,Murphy 2015,1
Burazin 2018,Nannini 1995,1
Burazin 2018,Roversi 2015,1
Burazin 2018,Searle 2010,1
Burazin 2018,Searle 2001,1
Burazin 2018,Zaibert Smith 2007,1
Burazin 2018,Thomasson 2003,1
Burazin 2018,Thomasson 2007,1
Burazin 2018,Thomasson 2009,1
Burazin 2018,Rakoczy Tomasello 2007,1
Burazin 2018,Tuomela 2002,1
Burazin 2018,Tuomela 2013,1
Crowe 2014,Alexy 2008,1
Crowe 2014,Alexy 2010,1
Crowe 2014,Aristotle 1941,1
Crowe 2014,Austin 1995,1
Crowe 2014,Baker 2004,1
Crowe 2014,Baker 2007,1
Crowe 2014,Bloom 1996,1
Crowe 2014,Coleman Simchen 2003,1
Crowe 2014,Crawford 2013,1
Crowe 2014,Crowe 2012,1
Crowe 2014,Crowe 2011,1
Crowe 2014,Crowe 2014,1
Crowe 2014,Henckaerts Doswald-Beck 2005,1
Crowe 2014,Ehrenberg 2009,1
Crowe 2014,Ehrenberg 2013,1
Crowe 2014,Elder 2004,1
Crowe 2014,Elder 2007,1
Crowe 2014,Finnis 2011,1
Crowe 2014,Fuller 1969,1
Crowe 2014,Gardner 2004,1
Crowe 2014,Grisez 1987,1
Crowe 2014,Hart 1994,1
Crowe 2014,Hegel 1977,1
Crowe 2014,Hilpinen 1993,1
Crowe 2014,van Inwagen 1990,1
Crowe 2014,Kelsen 1967,1
Crowe 2014,Barton Komatsu 1989,1
Crowe 2014,Sloman Malt 2003,1
Crowe 2014,Kelsen 1967,1
Crowe 2014,Kornblith 1980,1
Crowe 2014,Leiter 2011,1
Crowe 2014,Levinson 1979,1
Crowe 2014,Levinson 2007,1
Crowe 2014,MacCormick 2007,1
Crowe 2014,Macklem 2013,1
Crowe 2014,Millikan 1983,1
Crowe 2014,von Mises 1934,1
Crowe 2014,Moore 1992,1
Crowe 2014,Murphy 2006,1
Crowe 2014,Murphy 2012,1
Crowe 2014,Raz 1979,1
Crowe 2014,Raz 1984,1
Crowe 2014,Searle 1995,1
Crowe 2014,Searle 2010,1
Crowe 2014,Shiner 2010,1
Crowe 2014,Thomasson 2003,1
Crowe 2014,Thomasson 2006,1
Crowe 2014,Thomasson 2007,1
Crowe 2014,La Torre 2010,1
Crowe 2014,Carrara Vermaas 2009,1
Crowe 2014,MacCormick Weinberger 1986,1
Crowe 2014,Wiggins 1980,1
Crowe 2014,Wiggins 2001,1
Ehrenberg 2009,Achinstein 1977,1
Ehrenberg 2009,Bigelow Pargetter 1987,1
Ehrenberg 2009,Agar 2003,1
Ehrenberg 2009,Bedau 1992 ,1
Ehrenberg 2009,Boyd 1991,1
Ehrenberg 2009,Cohen 1982,1
Ehrenberg 2009,Cohen 2001,1
Ehrenberg 2009,Coleman 2001,1
Ehrenberg 2009,Coleman 2002,1
Ehrenberg 2009,Dickman 1990,1
Ehrenberg 2009,Dickson 2001,1
Ehrenberg 2009,Dworkin 1986,1
Ehrenberg 2009,Elster 1979,1
Ehrenberg 2009,Finnis 1980,1
Ehrenberg 2009,Fuller 1969,1
Ehrenberg 2009,Green 1987,1
Ehrenberg 2009,Green 1987,1
Ehrenberg 2009,Green 1998,1
Ehrenberg 2009,Green 1996,1
Ehrenberg 2009,Wright 1973,1
Ehrenberg 2009,Wright 1976,1
Ehrenberg 2009,Hacking 1991,1
Ehrenberg 2009,Hacking 1999,1
Ehrenberg 2009,Hart 1955,1
Ehrenberg 2009,Hart 1994,1
Ehrenberg 2009,Kelsen 1949,1
Ehrenberg 2009,Kincaid 1994,1
Ehrenberg 2009,Mandelbaum 1982,1
Ehrenberg 2009,Marmor 2001,1
Ehrenberg 2009,McClamrock 1993,1
Ehrenberg 2009,Merton 1968,1
Ehrenberg 2009,Moore 1992,1
Ehrenberg 2009,Moore 2001,1
Ehrenberg 2009,Murphy 2001,1
Ehrenberg 2009,Murphy 2005,1
Ehrenberg 2009,Nielsen 1963,1
Ehrenberg 2009,Perry 1995,1
Ehrenberg 2009,Perry 1998,1
Ehrenberg 2009,Raz 1973,1
Ehrenberg 2009,Raz 1975,1
Ehrenberg 2009,Raz 1979,1
Ehrenberg 2009,Searle 1995,1
Ehrenberg 2009,Shapiro 2000,1
Ehrenberg 2009,Shapiro 2001,1
Ehrenberg 2009,Sullivan 1896,1
Ehrenberg 2009,Twining 2003,1
Ehrenberg 2009,Waluchow 1994,1
Gardner 2004,Dworkin 1977,1
Gardner 2004,Dworkin 1977,1
Gardner 2004,Dworkin 1977,1
Gardner 2004,Dworkin 1986,1
Gardner 2004,Dworkin 1986,1
Gardner 2004,Dworkin 1986,1
Gardner 2004,Dworkin 1986,1
Gardner 2004,Dworkin 1986,1
Gardner 2004,Finnis 1987,1
Gardner 2004,Fuller 1964,1
Gardner 2004,Gardner 2000,1
Gardner 2004,Gardner 2001,1
Gardner 2004,Gardner 2001,1
Gardner 2004,Hart 1964,1
Gardner 2004,Hart 1994,1
Gardner 2004,Hart 1994,1
Gardner 2004,Hart 1994,1
Gardner 2004,Hart 1994,1
Gardner 2004,Hart 1994,1
Gardner 2004,Hart 1994,1
Gardner 2004,Hart 1994,1
Gardner 2004,Hart 1994,1
Gardner 2004,Hart 1994,1
Gardner 2004,Kelsen 1945,1
Gardner 2004,Kelsen 1945,1
Gardner 2004,Raz 1990,1
Gardner 2004,Raz 1995,1
Gardner 2004,Raz 1995,1
Godinez 2019,Burazin 2008,1
Godinez 2019,Burazin 2015,1
Godinez 2019,Burazin 2015,1
Godinez 2019,Burazin 2015,1
Godinez 2019,Burazin 2015,1
Godinez 2019,Burazin 2016,1
Godinez 2019,Burazin 2016,1
Godinez 2019,Burazin 2016,1
Godinez 2019,Burazin 2016,1
Godinez 2019,Burazin 2016,1
Godinez 2019,Burazin 2016,1
Godinez 2019,Burazin 2016,1
Godinez 2019,Burazin 2016,1
Godinez 2019,Burazin 2016,1
Godinez 2019,Burazin 2016,1
Godinez 2019,Burazin 2016,1
Godinez 2019,Burazin 2016,1
Godinez 2019,Burazin 2016,1
Godinez 2019,Burazin 2016,1
Godinez 2019,Burazin 2016,1
Godinez 2019,Burazin 2016,1
Godinez 2019,Burazin 2016,1
Godinez 2019,Burazin 2016,1
Godinez 2019,Burazin 2016,1
Godinez 2019,Burazin 2016,1
Godinez 2019,Burazin 2016,1
Godinez 2019,Burazin 2016,1
Godinez 2019,Burazin 2016,1
Godinez 2019,Burazin 2016,1
Godinez 2019,Burazin 2016,1
Godinez 2019,Burazin 2016,1
Godinez 2019,Burazin 2016,1
Godinez 2019,Burazin 2018,1
Godinez 2019,Burazin 2018,1
Godinez 2019,Burazin 2018,1
Godinez 2019,Burazin 2018,1
Godinez 2019,Burazin 2018,1
Godinez 2019,Burazin 2018,1
Godinez 2019,Burazin 2018,1
Godinez 2019,Burazin 2018,1
Godinez 2019,Burazin 2018,1
Godinez 2019,Burazin 2018,1
Godinez 2019,Burazin 2018,1
Godinez 2019,Burge 1979,1
Godinez 2019,MacCormick 1989,1
Godinez 2019,MacCormick 2007,1
Godinez 2019,MacCormick 2007,1
Godinez 2019,MacCormick 2007,1
Godinez 2019,MacCormick 2007,1
Godinez 2019,MacCormick 2008,1
Godinez 2019,Epstein 2015,1
Godinez 2019,Epstein 2016,1
Godinez 2019,Epstein 2017,1
Godinez 2019,Friedman 2007,1
Godinez 2019,Hart 1994,1
Godinez 2019,Hershfield 2011,1
Godinez 2019,Marmor 2009,1
Godinez 2019,Podoksik 2003,1
Godinez 2019,Searle 2002,1
Godinez 2019,Shapiro 2011,1
Godinez 2019,Thomasson 2007,1
Godinez 2019,Thomasson 2014,1
Godinez 2019,Thomasson 2014,1
Leiter 2011,Dickson 2001,1
Leiter 2011,Dworkin 2008,1
Leiter 2011,Marx Engels 1998,1
Leiter 2011,Finnis 2000,1
Leiter 2011,Fuller 1957,1
Leiter 2011,Green 2009,1
Leiter 2011,Hart 1983,1
Leiter 2011,Hart 1994,1
Leiter 2011,Kelsen 1967,1
Leiter 2011,Laudan 1983,1
Leiter 2011,Laudan 1990,1
Leiter 2011,Leiter 2004,1
Leiter 2011,Leiter 2007,1
Leiter 2011,Leiter 2007,1
Leiter 2011,Leiter 2009,1
Leiter 2011,Leiter 2012,1
Leiter 2011,Leiter 2012,1
Leiter 2011,Murphy 2005,1
Leiter 2011,Raz 1994,1
Leiter 2011,Raz 2009,1
Leiter 2011,Shapiro 1998,1
Leiter 2011,Shapiro 2011,1
Leiter 2011,Toh 2005,1
Leiter 2011,Toh 2011,1
Leiter 2011,Waluchow 1994,1
Murphy 2015,Alexy 1992,1
Murphy 2015,Alexy 2002,1
Murphy 2015,Aquinas 1981,1
Murphy 2015,Austin 1832,1
Murphy 2015,Crowe 2015,1
Murphy 2015,Dickson 2001,1
Murphy 2015,Dworkin 1982,1
Murphy 2015,Dworkin 1986,1
Murphy 2015,Dyzenhaus 2001,1
Murphy 2015,Finnis 1980,1
Murphy 2015,Fuller 1964,1
Murphy 2015,Gardner 2001,1
Murphy 2015,George 1996,1
Murphy 2015,Green 2013,1
Murphy 2015,Greenberg 2004,1
Murphy 2015,Hart 1955,1
Murphy 2015,Hart 1994,1
Murphy 2015,Hobbes 1651,1
Murphy 2015,Pagin 2016,1
Murphy 2015,Mitchell 2017,1
Murphy 2015,Kelsen 1945,1
Murphy 2015,Kelsen 1934,1
Murphy 2015,Leiter 2011,1
Murphy 2015,Leiter 2013,1
Murphy 2015,Margolis Laurence 2007,1
Murphy 2015,Marmor 1992,1
Murphy 2015,Moore 1992,1
Murphy 2015,Moore 2001,1
Murphy 2015,Murphy 1995,1
Murphy 2015,Murphy 2001,1
Murphy 2015,Murphy 2003,1
Murphy 2015,Murphy 2006,1
Murphy 2015,Murphy 2012,1
Murphy 2015,Murphy 2013,1
Murphy 2015,Raz 2004,1
Murphy 2015,Raz 1994,1
Murphy 2015,Schauer 2012,1
Murphy 2015,Schroeder 2007,1
Murphy 2015,Soper 1983,1
Murphy 2015,Shapiro 2012,1
Murphy 2015,Patterson 2012,1
Murphy 2015,Searle Vanderveken 1985,1
Murphy 2015,Williamson 1996,1
Schauer 2012,McCloskey Glucksberg 1978,1
Schauer 2012,Rips 2001,1
Schauer 2012,Rosch Mervis 1975,1
Schauer 2012,Sloman Malt 2003,1
Schauer 2012,Almog 2009,1
Schauer 2012,Almog 2010,1
Schauer 2012,Bayles 1992,1
Schauer 2012,Bayles 1992,1
Schauer 2012,Bix 2003,1
Schauer 2012,Bix 2007,1
Schauer 2012,Black 1954,1
Schauer 2012,Devitt Sterelny 1999,1
Schauer 2012,Devitt Hanley 2006,1
Schauer 2012,Dickson 2001 ,1
Schauer 2012,Dickson 2001,1
Schauer 2012,Dickson 2001,1
Schauer 2012,Dickson 2001,1
Schauer 2012,Dickson 2008,1
Schauer 2012,Dumsday 2009 ,1
Schauer 2012,Edmundson 1999,1
Schauer 2012,Edmundson 1999,1
Schauer 2012,Ehrenberg 2009,1
Schauer 2012,Endicott 2000,1
Schauer 2012,Endicott 2000,1
Schauer 2012,Fitzgerald 1966,1
Schauer 2012,Flew 19755,1
Schauer 2012,Gaut 2005,1
Schauer 2012,Gallie 1956,1
Schauer 2012,Gavison 1987,1
Schauer 2012,Glenn 2010,1
Schauer 2012,Glenn 2010,1
Schauer 2012,Golding 1975,1
Schauer 2012,Golding 1975,1
Schauer 2012,Green 1998,1
Schauer 2012,Green 2005,1
Schauer 2012,Green 2008,1
Schauer 2012,Hart 1953,1
Schauer 2012,Hart 1994,1
Schauer 2012,Hyde 2008,1
Schauer 2012,Kripke 1971,1
Schauer 2012,Kripke 1980,1
Schauer 2012,Lacey 2004,1
Schauer 2012,Leiter 2007,1
Schauer 2012,Leiter 2011,1
Schauer 2012,MacCormick 2008,1
Schauer 2012,Marmor 2005,1
Schauer 2012,Marmor 2006,1
Schauer 2012,Meskin 2007,1
Schauer 2012,Miller 1990,1
Schauer 2012,Putnam 1973,1
Schauer 2012,Raz 1979,1
Schauer 2012,Raz 1994,1
Schauer 2012,Raz 1996,1
Schauer 2012,Raz 1996,1
Schauer 2012,Raz 1996,1
Schauer 2012,Raz 2004,1
Schauer 2012,Raz 2005,1
Schauer 2012,Rips 2001,1
Schauer 2012,Russell 1923,1
Schauer 2012,Sartorius 1971,1
Schauer 2012,Sartorius 1971,1
Schauer 2012,Schauer 1989,1
Schauer 2012,Schauer 2003,1
Schauer 2012,Schauer 2003,1
Schauer 2012,Schauer 2006,1
Schauer 2012,Schauer 2007,1
Schauer 2012,Schauer 2010,1
Schauer 2012,Schauer 2010,1
Schauer 2012,Schauer 2010,1
Schauer 2012,Schauer 2010,1
Schauer 2012,Schauer 2010,1
Schauer 2012,Scheffler 1979,1
Schauer 2012,Scheffler 1979,1
Schauer 2012,Schiffer 2006,1
Schauer 2012,Schwartz 2002,1
Schauer 2012,Shapiro 2006,1
Schauer 2012,Shapiro 2006,1
Schauer 2012,Shapiro 2011,1
Schauer 2012,Shapiro 2011,1
Schauer 2012,Soper 2007,1
Schauer 2012,Sorensen 2008,1
Schauer 2012,Suits 2005,1
Schauer 2012,Summers 1971,1
Schauer 2012,Twining 2009,1
Schauer 2012,Twining 2009,1
Schauer 2012,Tamanaha 2011,1
Schauer 2012,Tyler 2006,1
Schauer 2012,Tyler 2006,1
Schauer 2012,Waismann 1951,1
Schauer 2012,Waismann 1951,1
Schauer 2012,Williamson 1994,1
Schauer 2012,Williamson 1994,1
Schauer 2012,Wisdom 1975,1
Schauer 2012,Wittgenstein 1958,1
Schauer 2012,Wittgenstein 1958,1
Schauer 2012,Wittgenstein 1978,1
Schauer 2012,Wittgenstein 1978,1
